(set-info :smt-lib-version 2.6)
(set-logic QF_S)
(set-info :source |
Generated by: Murphy Berzish, Mitja Kulczynski, Federico Mora, Florin Manea, Joel Day, Dirk Nowotka, Vijay Ganesh, Zhengyang Lu
Generated on: 2020-10-01
Description: Translated from a collection of real-world regex queries, AutomataArk, collected by Loris D’Antoni and Fang Wang: https://github.com/lorisdanto/automatark
Application: Evaluate solvers on real-world regex queries
Target solver: Z3str3RE, CVC4, OSTRICH, Z3seq, Z3str3, Z3-Trau
Publications: Berzish, M., Kulczynski, M., Mora, F., Manea, F., Day, J. D., Nowotka, D., & Ganesh, V. (2021, July). An SMT solver for regular expressions and linear arithmetic over string length. In CAV 2021.
|)
(set-info :license "https://creativecommons.org/licenses/by/4.0/")
(set-info :category "industrial")
(set-info :status unsat)

(declare-const X String)
(assert (str.in_re X (re.++ (str.to_re "//software.php?/Ui\u{a}") ((_ re.loop 15 15) (re.range "0" "9")) (re.* (re.range "0" "9")))))
(assert (str.in_re X (re.++ (str.to_re "/rss") (re.+ (re.range "0" "9")) (str.to_re "answer") (re.union (str.to_re " ") (str.to_re "\u{9}") (str.to_re "\u{a}") (str.to_re "\u{c}") (str.to_re "\u{d}")) (str.to_re "Host:\u{a}"))))
(assert (str.in_re X (re.++ (re.+ (re.range "0" "7")) (str.to_re "\u{a}"))))
(assert (not (str.in_re X (re.++ ((_ re.loop 2 2) (re.range "0" "9")) ((_ re.loop 1 1) (re.union (str.to_re " ") (str.to_re "\u{9}") (str.to_re "\u{a}") (str.to_re "\u{c}") (str.to_re "\u{d}"))) (re.union (str.to_re "Jan") (str.to_re "Feb") (str.to_re "Mar") (str.to_re "Apr") (str.to_re "May") (str.to_re "Jun") (str.to_re "Jul") (str.to_re "Apr") (str.to_re "Sep") (str.to_re "Oct") (str.to_re "Nov") (str.to_re "Dec")) ((_ re.loop 1 1) (re.union (str.to_re " ") (str.to_re "\u{9}") (str.to_re "\u{a}") (str.to_re "\u{c}") (str.to_re "\u{d}"))) ((_ re.loop 4 4) (re.range "0" "9")) (str.to_re "\u{a}")))))
(assert (str.in_re X (re.++ (re.opt (str.to_re "jar:")) (str.to_re "file:/") (re.union (re.++ (str.to_re "/") (re.+ (re.union (re.range "A" "Z") (re.range "0" "9") (str.to_re "_") (str.to_re "(") (str.to_re ")") (str.to_re "[") (str.to_re "]") (str.to_re "-") (str.to_re "=") (str.to_re "+") (str.to_re "~"))) (str.to_re ".jar!")) (re.++ (re.comp (str.to_re "!")) (str.to_re "/com/regexlib/example/"))) (str.to_re "\u{a}") (re.opt (re.++ (re.range "A" "Z") (str.to_re ":"))) (str.to_re "/") (re.+ (re.union (re.range "A" "Z") (re.range "0" "9") (str.to_re "*") (str.to_re "(") (str.to_re ")") (str.to_re "+") (str.to_re "-") (str.to_re "&") (str.to_re "$") (str.to_re "#") (str.to_re "@") (str.to_re "_") (str.to_re ".") (str.to_re "!") (str.to_re "~") (str.to_re "[") (str.to_re "]") (str.to_re "/"))))))
(check-sat)

(exit)
